c uprop, v00.0, 
c reading from data/prog301.c.cnf
c done reading: 0.002489
p cnf 93 405
-53 -60 0
-53 -63 0
53 60 63 0
-55 60 63 0
-55 -60 -63 0
55 -60 63 0
55 60 -63 0
-52 53 0
-52 -69 0
52 -53 69 0
-53 -54 69 0
53 -54 -69 0
53 54 69 0
-53 54 -69 0
52 -56 0
-56 -58 0
-52 56 58 0
-52 58 -62 0
52 -58 -62 0
52 58 62 0
-52 -58 62 0
56 -65 0
-65 -67 0
-56 65 67 0
-56 67 -71 0
56 -67 -71 0
56 67 71 0
-56 -67 71 0
-57 65 0
-50 -57 0
50 57 -65 0
50 -65 -66 0
-50 65 -66 0
50 65 66 0
-50 -65 66 0
-49 57 0
-47 -49 0
47 49 -57 0
-46 47 -57 0
-46 -47 57 0
46 47 57 0
46 -47 -57 0
-45 49 0
-43 -45 0
43 45 -49 0
-42 43 -49 0
-42 -43 49 0
42 43 49 0
42 -43 -49 0
-41 69 0
-41 60 0
41 -60 -69 0
-40 -60 -69 0
-40 60 69 0
40 60 -69 0
40 -60 69 0
39 -58 -63 0
39 -41 -58 0
39 -41 -63 0
-39 58 63 0
-39 41 58 0
-39 41 63 0
-38 -39 58 0
-38 -39 63 0
-38 -39 41 0
38 39 -58 0
38 39 -63 0
38 39 -41 0
38 -41 -58 -63 0
-38 41 58 63 0
37 -67 -69 0
37 -39 -67 0
37 -39 -69 0
-37 67 69 0
-37 39 67 0
-37 39 69 0
-36 -37 67 0
-36 -37 69 0
-36 -37 39 0
36 37 -67 0
36 37 -69 0
36 37 -39 0
36 -39 -67 -69 0
-36 39 67 69 0
35 -50 -58 0
35 -37 -50 0
35 -37 -58 0
-35 50 58 0
-35 37 50 0
-35 37 58 0
-35 50 -72 0
-35 58 -72 0
-35 37 -72 0
35 -50 72 0
35 -58 72 0
35 -37 72 0
-37 -50 -58 72 0
37 50 58 -72 0
-47 -67 73 0
-35 -47 73 0
-35 -67 73 0
47 67 -73 0
35 47 -73 0
35 67 -73 0
47 -73 -74 0
67 -73 -74 0
35 -73 -74 0
-47 73 74 0
-67 73 74 0
-35 73 74 0
-35 -47 -67 74 0
35 47 67 -74 0
-43 -50 75 0
-43 -73 75 0
-50 -73 75 0
43 50 -75 0
43 73 -75 0
50 73 -75 0
43 -75 -76 0
50 -75 -76 0
73 -75 -76 0
-43 75 76 0
-50 75 76 0
-73 75 76 0
-43 -50 -73 76 0
43 50 73 -76 0
47 -77 0
75 -77 0
-47 -75 77 0
-47 -75 -78 0
47 75 -78 0
-47 75 78 0
47 -75 78 0
43 -79 0
77 -79 0
-43 -77 79 0
-43 -77 -80 0
43 77 -80 0
-43 77 80 0
43 -77 80 0
38 -81 0
60 -81 0
-38 -60 81 0
-38 -60 -82 0
38 60 -82 0
-38 60 82 0
38 -60 82 0
-36 -63 83 0
-36 -81 83 0
-63 -81 83 0
36 63 -83 0
36 81 -83 0
63 81 -83 0
36 -83 -84 0
63 -83 -84 0
81 -83 -84 0
-36 83 84 0
-63 83 84 0
-81 83 84 0
-36 -63 -81 84 0
36 63 81 -84 0
-69 -72 85 0
-72 -83 85 0
-69 -83 85 0
69 72 -85 0
72 83 -85 0
69 83 -85 0
-61 72 -85 0
-61 69 -85 0
-61 83 -85 0
61 -72 85 0
61 -69 85 0
61 -83 85 0
61 -69 -72 -83 0
-61 69 72 83 0
-58 64 -74 0
64 -74 -85 0
-58 64 -85 0
58 -64 74 0
-64 74 85 0
58 -64 85 0
-64 -70 74 0
58 -64 -70 0
-64 -70 85 0
64 70 -74 0
-58 64 70 0
64 70 -85 0
-58 70 -74 -85 0
58 -70 74 85 0
59 -67 -76 0
59 -64 -76 0
59 -64 -67 0
-59 67 76 0
-59 64 76 0
-59 64 67 0
-59 -68 76 0
-59 67 -68 0
-59 64 -68 0
59 68 -76 0
59 -67 68 0
59 -64 68 0
-64 -67 68 -76 0
64 67 -68 76 0
-50 51 -78 0
51 -59 -78 0
-50 51 -59 0
50 -51 78 0
-51 59 78 0
50 -51 59 0
-48 -51 78 0
-48 50 -51 0
-48 -51 59 0
48 51 -78 0
48 -50 51 0
48 51 -59 0
48 -50 -59 -78 0
-48 50 59 78 0
44 -47 -80 0
44 -51 -80 0
44 -47 -51 0
-44 47 80 0
-44 51 80 0
-44 47 51 0
-44 80 -86 0
-44 47 -86 0
-44 51 -86 0
44 -80 86 0
44 -47 86 0
44 -51 86 0
-47 -51 -80 86 0
47 51 80 -86 0
-43 -79 87 0
-44 -79 87 0
-43 -44 87 0
43 79 -87 0
44 79 -87 0
43 44 -87 0
79 -87 -88 0
43 -87 -88 0
44 -87 -88 0
-79 87 88 0
-43 87 88 0
-44 87 88 0
-43 -44 -79 88 0
43 44 79 -88 0
-60 -89 0
-63 -89 0
60 63 89 0
60 63 -90 0
-60 -63 -90 0
-60 63 90 0
60 -63 90 0
89 -91 0
-40 -91 0
40 -89 91 0
40 -89 -92 0
-40 89 -92 0
40 89 92 0
-40 -89 92 0
91 -93 0
-82 -93 0
82 -91 93 0
-34 82 -91 0
-34 -82 91 0
34 82 91 0
34 -82 -91 0
-33 93 0
-33 -84 0
33 84 -93 0
-32 84 -93 0
-32 -84 93 0
32 84 93 0
32 -84 -93 0
-31 33 0
-31 -61 0
31 -33 61 0
-30 -33 61 0
-30 33 -61 0
30 33 61 0
30 -33 -61 0
-29 31 0
-29 -70 0
29 -31 70 0
-28 -31 70 0
-28 31 -70 0
28 31 70 0
28 -31 -70 0
-27 29 0
-27 -68 0
27 -29 68 0
-26 -29 68 0
-26 29 -68 0
26 29 68 0
26 -29 -68 0
-25 27 0
-25 -48 0
25 -27 48 0
-24 -27 48 0
-24 27 -48 0
24 27 48 0
24 -27 -48 0
-23 25 0
-23 -86 0
23 -25 86 0
-22 -25 86 0
-22 25 -86 0
22 25 86 0
22 -25 -86 0
-21 23 0
-21 -88 0
21 -23 88 0
-20 -23 88 0
-20 23 -88 0
20 23 88 0
20 -23 -88 0
-19 21 0
-19 -87 0
19 -21 87 0
-18 -21 87 0
-18 21 -87 0
18 21 87 0
18 -21 -87 0
-16 17 0
-16 60 0
16 -17 -60 0
-17 60 0
17 -60 0
14 -15 -63 0
14 -15 -16 0
14 -16 -63 0
-14 15 63 0
-14 15 16 0
-14 16 63 0
-14 15 0
-14 63 0
-14 16 0
15 16 63 0
12 -13 -40 0
12 -13 -14 0
12 -14 -40 0
-12 13 40 0
-12 13 14 0
-12 14 40 0
-12 13 0
-12 40 0
-12 14 0
13 14 40 0
10 -11 -82 0
10 -11 -12 0
10 -12 -82 0
-10 11 82 0
-10 11 12 0
-10 12 82 0
10 -11 0
10 -82 0
10 -12 0
-11 -12 -82 0
8 -9 -84 0
8 -9 -10 0
8 -10 -84 0
-8 9 84 0
-8 9 10 0
-8 10 84 0
8 -9 0
8 -84 0
8 -10 0
-9 -10 -84 0
6 -7 -61 0
6 -7 -8 0
6 -8 -61 0
-6 7 61 0
-6 7 8 0
-6 8 61 0
6 -7 0
6 -61 0
6 -8 0
-7 -8 -61 0
-5 70 0
-5 6 0
5 -6 -70 0
6 -70 0
-6 70 0
-4 68 0
-4 5 0
4 -5 -68 0
5 -68 0
-5 68 0
-3 48 0
-3 4 0
3 -4 -48 0
4 -48 0
-4 48 0
-2 86 0
-2 3 0
2 -3 -86 0
3 -86 0
-3 86 0
-1 88 0
-1 2 0
1 -2 -88 0
2 -88 0
-2 88 0
-1 -87 0
1 -87 0
-1 87 0
